100 487
1 23 -1
1 36 1
1 43 -1
2 21 -1
2 22 -1
2 40 -1
2 42 -1
2 56 -1
2 64 -1
2 66 -1
2 81 -1
2 82 -1
2 95 1
2 98 1
3 8 -1
3 20 -1
3 34 -1
3 36 1
3 39 1
3 47 -1
3 48 1
3 78 -1
3 92 -1
3 97 1
4 7 1
4 12 -1
4 28 1
4 29 -1
4 31 1
4 37 1
4 38 -1
4 40 1
4 54 1
4 56 -1
4 71 -1
4 73 1
4 100 -1
5 6 -1
5 24 1
5 35 -1
5 42 1
5 44 1
5 45 -1
5 46 -1
5 49 -1
5 52 -1
5 62 -1
5 70 1
5 73 1
5 83 1
5 98 -1
6 11 1
6 14 1
6 17 1
6 29 -1
6 37 1
6 65 -1
6 74 -1
6 75 1
6 79 1
6 86 -1
6 88 1
6 97 1
6 100 -1
7 25 1
7 26 1
7 47 -1
7 58 -1
7 75 1
7 76 -1
7 82 -1
7 94 -1
8 26 -1
8 27 -1
8 41 -1
8 44 -1
8 49 -1
8 86 -1
8 89 -1
8 93 -1
8 94 -1
9 21 -1
9 28 1
9 36 -1
9 51 1
9 60 -1
9 67 1
9 76 -1
9 88 -1
9 90 -1
10 16 1
10 29 1
10 30 -1
10 42 1
10 58 -1
10 82 -1
10 85 -1
10 97 1
11 29 -1
11 46 -1
11 52 1
11 54 1
11 59 1
11 75 1
11 88 1
11 100 1
12 13 1
12 25 -1
12 31 1
12 32 -1
12 37 -1
12 40 -1
12 42 -1
12 44 -1
12 54 -1
12 59 -1
12 60 -1
12 62 1
12 71 1
12 79 1
12 84 1
12 100 -1
13 26 1
13 33 1
13 54 1
13 63 -1
13 73 1
14 20 -1
14 21 1
14 36 1
14 49 1
14 66 -1
14 81 -1
14 84 -1
14 88 -1
14 91 -1
15 23 1
15 30 -1
15 46 -1
15 52 -1
15 67 -1
15 69 -1
15 74 1
15 83 -1
15 85 -1
16 19 1
16 37 1
16 41 -1
16 53 1
16 54 1
16 56 1
16 60 -1
16 71 1
16 77 1
16 87 1
16 97 1
17 19 1
17 20 1
17 33 1
17 38 -1
17 40 1
17 43 1
17 46 1
17 57 1
17 84 1
18 30 1
18 34 1
18 35 -1
18 44 1
18 64 -1
18 73 -1
18 76 -1
18 81 1
18 84 -1
18 90 1
18 92 -1
18 98 1
19 52 1
19 63 1
19 67 1
19 68 1
19 74 -1
19 78 -1
19 88 -1
20 29 -1
20 39 -1
20 64 1
20 73 -1
20 76 -1
20 84 -1
20 86 1
20 100 1
22 27 -1
22 32 1
22 37 1
22 45 1
22 53 -1
22 56 -1
22 77 -1
23 26 1
23 33 -1
23 49 1
23 61 1
23 70 -1
23 77 -1
23 79 1
23 84 -1
24 27 1
24 30 1
24 37 -1
24 82 1
25 36 1
25 44 1
25 45 -1
25 53 1
25 59 -1
25 63 -1
25 65 -1
25 78 1
25 88 1
25 90 -1
25 99 -1
26 40 1
26 50 1
26 55 -1
26 97 1
27 31 -1
27 38 1
27 42 -1
27 90 -1
28 57 1
28 63 -1
28 71 1
28 72 1
29 47 -1
29 49 -1
29 54 -1
29 65 1
29 67 -1
29 72 -1
29 77 1
29 78 -1
29 88 -1
29 92 1
30 33 1
30 35 1
30 48 -1
30 54 -1
30 66 -1
30 76 1
30 77 -1
30 79 -1
30 88 -1
30 89 1
30 96 1
32 40 -1
32 41 1
32 67 1
32 68 1
32 74 -1
32 78 -1
32 82 -1
33 35 1
33 48 -1
33 86 -1
33 90 -1
33 95 1
33 100 -1
34 68 -1
34 92 -1
35 40 1
35 41 -1
35 56 1
35 58 1
35 59 -1
35 67 1
35 75 -1
35 84 1
35 89 -1
35 98 1
36 44 -1
36 46 1
36 56 1
36 81 -1
36 88 -1
36 90 1
36 100 1
37 75 -1
37 92 1
37 96 1
38 41 1
38 57 -1
38 66 -1
38 67 1
38 71 -1
39 42 1
39 48 -1
39 49 -1
39 58 -1
39 60 1
39 64 1
39 66 -1
39 81 1
39 90 -1
40 42 1
40 45 1
40 49 1
40 58 -1
40 60 -1
40 62 1
40 70 1
40 76 -1
40 77 -1
40 98 1
40 99 1
41 42 -1
41 62 1
41 64 1
41 67 1
41 69 -1
41 77 1
41 84 -1
41 86 1
41 94 -1
41 100 -1
42 44 1
42 46 -1
42 54 1
42 57 1
43 50 1
43 53 -1
43 68 1
43 75 -1
43 77 1
44 49 -1
44 54 1
44 82 1
44 85 -1
44 87 1
44 94 -1
45 47 1
45 60 -1
45 93 -1
45 99 1
46 48 1
46 50 1
46 67 1
46 78 1
47 61 1
47 67 -1
48 73 1
48 75 1
48 94 1
48 97 -1
49 60 -1
50 68 1
50 85 -1
51 61 -1
51 83 -1
51 85 -1
51 89 1
52 53 -1
52 69 1
52 74 1
52 87 -1
53 64 1
53 69 -1
53 73 1
53 75 1
53 76 -1
53 84 1
53 100 1
54 82 1
54 100 1
55 64 -1
55 66 -1
55 70 1
56 66 1
56 78 -1
56 82 -1
56 95 1
57 60 -1
57 68 -1
57 94 -1
57 99 -1
58 59 -1
58 78 1
59 66 1
59 76 -1
59 77 1
59 78 1
59 85 -1
59 87 1
60 64 1
60 81 1
60 84 -1
60 90 -1
60 99 -1
61 76 1
61 78 -1
61 83 1
61 84 -1
61 93 -1
62 71 -1
62 88 1
62 95 -1
63 64 1
63 84 1
63 94 1
63 98 -1
64 69 1
65 71 1
65 77 1
65 86 1
65 89 1
65 99 1
65 100 -1
66 71 -1
66 77 -1
66 84 -1
66 90 1
67 70 -1
67 74 -1
67 86 1
68 84 -1
68 88 1
68 89 -1
68 94 -1
68 100 -1
70 75 -1
70 80 -1
70 81 -1
70 88 -1
70 96 -1
71 74 -1
71 82 -1
71 83 1
71 99 -1
73 90 1
73 95 -1
74 79 -1
74 92 -1
74 94 -1
74 95 1
74 98 -1
75 80 1
75 81 -1
75 82 1
75 87 1
75 90 1
75 96 1
75 98 -1
75 100 1
76 79 1
76 91 1
77 79 -1
77 83 -1
78 99 -1
79 81 -1
79 83 -1
79 87 1
79 98 1
80 86 -1
80 98 -1
80 99 -1
81 83 1
81 93 1
81 99 1
82 86 -1
82 95 1
83 86 1
84 94 -1
85 91 1
86 88 1
86 89 1
86 99 -1
87 89 -1
87 90 1
87 92 1
88 90 -1
89 91 1
90 99 -1
91 92 -1
91 93 -1
91 95 1
92 100 -1
96 99 1
